param n:= 2549;
param p:=960;

param:  E : c  :=
1 961 1
1 962 1
2 963 1
2 964 1
2 965 1
2 966 1
2 967 1
3 968 1
4 968 1
4 969 1
5 968 1
5 970 1
6 968 1
6 971 1
6 970 1
7 968 1
7 971 1
7 972 1
7 970 1
8 968 1
8 971 1
8 972 1
8 970 1
9 973 1
9 974 1
9 975 1
9 976 1
10 977 1
10 978 1
10 979 1
11 980 1
12 981 1
12 982 1
12 983 1
13 984 1
13 985 1
13 986 1
14 987 1
15 988 1
15 989 1
15 990 1
16 991 1
16 992 1
16 993 1
17 991 1
17 994 1
18 991 1
18 995 1
18 994 1
19 996 1
19 997 1
19 998 1
19 999 1
19 1000 1
19 1001 1
20 1002 1
21 1003 1
21 1004 1
22 1005 1
22 1006 1
22 1007 1
23 1008 1
23 1009 1
23 1010 1
23 1011 1
24 1012 1
24 1013 1
24 1014 1
24 1015 1
24 994 1
25 1012 1
25 1016 1
25 1017 1
26 1012 1
26 1018 1
26 1019 1
27 1020 1
27 1021 1
27 1022 1
28 1023 1
29 1023 1
29 1024 1
29 1025 1
29 1026 1
30 1027 1
30 1028 1
30 1029 1
31 1030 1
31 1031 1
31 1032 1
31 1033 1
32 1034 1
32 1035 1
32 1036 1
32 1037 1
33 1038 1
33 1039 1
33 1040 1
33 1041 1
34 1042 1
34 1043 1
34 1044 1
35 1045 1
35 1046 1
35 1047 1
36 1048 1
36 1049 1
37 1050 1
38 1051 1
38 1016 1
39 1052 1
39 1053 1
39 1054 1
40 1055 1
40 1056 1
40 1057 1
40 1058 1
40 1059 1
41 1055 1
41 1060 1
41 1057 1
41 1061 1
41 1058 1
42 1055 1
42 1057 1
42 1058 1
43 1062 1
44 1063 1
44 1064 1
44 1065 1
45 1066 1
45 1067 1
45 1068 1
46 1069 1
46 1070 1
47 1071 1
48 1072 1
48 1073 1
49 1074 1
49 1075 1
50 1076 1
51 1077 1
51 1078 1
52 1079 1
52 1080 1
53 1081 1
53 1082 1
54 1083 1
54 1084 1
54 1085 1
55 1086 1
56 1087 1
56 1088 1
56 1089 1
57 1090 1
57 1091 1
58 994 1
59 994 1
59 991 1
60 994 1
60 991 1
60 995 1
61 994 1
61 991 1
61 995 1
61 1092 1
62 994 1
62 995 1
62 1093 1
62 1094 1
62 1095 1
62 1014 1
63 994 1
63 995 1
63 1093 1
63 1094 1
63 1014 1
63 1095 1
64 994 1
64 1093 1
64 1014 1
65 1096 1
65 1097 1
66 1098 1
66 1099 1
67 1100 1
67 1101 1
67 1102 1
67 1103 1
67 1104 1
67 1105 1
67 1106 1
67 1107 1
67 1108 1
67 1109 1
68 1110 1
69 1110 1
69 1032 1
69 1111 1
69 1112 1
70 1110 1
70 1032 1
70 1112 1
71 1110 1
71 1113 1
72 1114 1
72 1115 1
73 1114 1
73 1115 1
73 1116 1
73 1117 1
74 1032 1
75 1032 1
75 1030 1
76 1032 1
76 1110 1
76 1111 1
76 1112 1
77 1032 1
77 1118 1
77 1119 1
78 1120 1
79 1121 1
79 1122 1
80 1123 1
80 1124 1
81 1125 1
82 1125 1
82 1126 1
83 1127 1
83 1128 1
84 1129 1
85 1130 1
85 1131 1
85 1132 1
86 1133 1
86 1134 1
86 1135 1
87 1133 1
87 1135 1
88 1136 1
88 1137 1
88 1138 1
89 1139 1
90 1140 1
91 1140 1
91 1141 1
91 1142 1
92 1141 1
92 1140 1
92 1142 1
93 1143 1
93 1144 1
94 1145 1
94 1146 1
94 1147 1
95 1145 1
95 1016 1
95 1017 1
96 1148 1
96 1149 1
97 1148 1
97 1149 1
97 1150 1
98 1151 1
99 1152 1
99 1153 1
99 1154 1
99 1007 1
100 1152 1
100 1007 1
100 1155 1
101 1156 1
101 1157 1
101 1158 1
101 1159 1
101 1160 1
102 1161 1
102 1162 1
102 1163 1
103 1092 1
104 1092 1
104 994 1
105 1092 1
105 1164 1
106 1165 1
107 1166 1
107 1167 1
108 1168 1
108 1169 1
108 1170 1
109 1171 1
109 1172 1
109 1173 1
110 1174 1
110 1175 1
110 1176 1
111 1177 1
111 1178 1
111 1009 1
111 1179 1
112 1177 1
112 1180 1
112 1181 1
112 1182 1
112 1183 1
113 1177 1
113 1097 1
113 1184 1
114 1177 1
114 1181 1
115 1177 1
115 1181 1
115 1180 1
115 1185 1
115 1179 1
116 1186 1
116 1111 1
117 1186 1
117 1111 1
117 1057 1
117 1055 1
118 1186 1
118 1111 1
118 1112 1
119 1187 1
119 1188 1
120 1189 1
121 1189 1
121 1190 1
122 1189 1
122 1190 1
122 1191 1
122 1192 1
123 1193 1
124 1193 1
125 1194 1
125 1195 1
125 1196 1
126 1197 1
127 1198 1
127 1199 1
128 1200 1
129 1200 1
129 1201 1
130 1200 1
130 1202 1
131 1203 1
131 1204 1
132 1205 1
133 1205 1
133 1206 1
134 1205 1
134 1207 1
135 1205 1
135 1208 1
136 1209 1
136 1210 1
136 1211 1
137 1178 1
137 1177 1
137 1179 1
138 1178 1
138 1177 1
138 1212 1
138 1213 1
138 1179 1
139 1214 1
140 1215 1
140 1216 1
140 1217 1
141 1218 1
142 1219 1
142 1220 1
143 1221 1
143 1222 1
144 1223 1
144 1224 1
144 1225 1
144 1226 1
144 1227 1
144 1228 1
144 1229 1
144 1230 1
145 1231 1
145 1232 1
146 1233 1
147 1234 1
147 1235 1
147 1236 1
148 1237 1
148 1238 1
148 1239 1
149 1240 1
149 1241 1
149 1242 1
149 1243 1
149 1244 1
149 1245 1
149 1246 1
150 1247 1
150 1248 1
150 1249 1
151 1247 1
151 1250 1
151 1249 1
152 1251 1
152 1252 1
152 1253 1
153 1254 1
153 1255 1
154 1256 1
155 1257 1
155 1258 1
156 1257 1
156 1259 1
156 1260 1
156 1261 1
157 1262 1
157 1164 1
157 1263 1
157 1264 1
158 1262 1
158 1265 1
158 1263 1
159 1262 1
159 1111 1
159 1112 1
160 1266 1
160 1267 1
160 1268 1
160 1039 1
160 1269 1
161 1266 1
161 1039 1
161 1269 1
161 1270 1
162 1271 1
162 1058 1
162 1030 1
163 1272 1
163 1273 1
164 1274 1
164 1275 1
164 1276 1
165 1164 1
165 1262 1
165 1263 1
166 1164 1
166 1277 1
166 1262 1
166 1278 1
167 1279 1
167 1280 1
168 1281 1
168 1282 1
168 1283 1
168 1284 1
169 1281 1
169 1284 1
169 1285 1
169 1286 1
170 1287 1
170 1288 1
170 1289 1
170 1290 1
171 1291 1
171 1292 1
171 1112 1
172 1293 1
172 1294 1
172 1295 1
172 1296 1
173 1297 1
173 1298 1
174 1299 1
174 1300 1
174 1301 1
174 1302 1
175 1303 1
175 1304 1
175 1305 1
176 1306 1
176 1307 1
176 1308 1
176 1213 1
176 1177 1
177 1309 1
177 1310 1
177 1311 1
177 1312 1
177 1313 1
177 1314 1
178 1315 1
178 1316 1
178 1317 1
179 1318 1
180 1318 1
180 1319 1
180 1320 1
181 1318 1
181 1321 1
181 1322 1
181 1319 1
182 1323 1
182 1324 1
183 1323 1
183 1325 1
183 1326 1
184 1327 1
184 1328 1
184 1329 1
185 985 1
185 986 1
186 985 1
186 986 1
186 1163 1
186 1162 1
187 985 1
187 986 1
187 1330 1
188 1331 1
188 1039 1
188 1332 1
189 1333 1
189 1334 1
189 1335 1
190 1336 1
190 1337 1
190 1338 1
191 1336 1
191 1339 1
191 1337 1
191 1338 1
192 1336 1
192 1338 1
193 1336 1
193 1338 1
193 1337 1
194 1340 1
194 1341 1
194 1342 1
195 1343 1
195 1344 1
195 1345 1
196 1346 1
196 1347 1
196 1348 1
196 1349 1
196 1350 1
196 1351 1
196 1352 1
196 1353 1
197 1354 1
197 1355 1
197 1356 1
197 1357 1
198 1358 1
198 1359 1
198 1360 1
198 1361 1
199 1362 1
199 1363 1
199 1238 1
199 1364 1
199 1239 1
199 1365 1
199 1366 1
200 1367 1
200 1127 1
201 1368 1
202 1369 1
202 1370 1
202 1371 1
202 1372 1
202 1373 1
203 1369 1
203 1374 1
203 1371 1
203 1373 1
204 1375 1
204 1376 1
205 1363 1
205 1288 1
205 1377 1
206 1363 1
206 1288 1
206 1377 1
206 1289 1
207 1363 1
207 1288 1
207 1378 1
208 1379 1
208 1380 1
209 1381 1
210 1382 1
210 1280 1
211 1383 1
211 1384 1
211 1385 1
212 1386 1
212 1387 1
212 1388 1
213 1389 1
214 1389 1
214 1390 1
215 1389 1
215 1007 1
216 1391 1
216 1392 1
217 1391 1
217 1393 1
218 1394 1
218 1395 1
219 1396 1
219 1206 1
219 1205 1
220 1396 1
220 1206 1
220 1205 1
221 1397 1
221 1398 1
221 1399 1
222 1400 1
222 1401 1
223 1400 1
223 1402 1
223 1079 1
224 1403 1
224 1404 1
225 1405 1
225 1406 1
226 1407 1
226 1408 1
226 1409 1
226 1410 1
227 1411 1
227 1243 1
228 1412 1
229 1413 1
229 1414 1
229 1415 1
229 1416 1
229 1417 1
229 1418 1
229 1419 1
229 1420 1
230 1421 1
230 1422 1
230 1423 1
230 1424 1
231 1425 1
231 1426 1
231 1427 1
232 1425 1
232 994 1
233 1428 1
233 1429 1
233 1430 1
233 1431 1
233 1432 1
234 1433 1
234 1434 1
234 1435 1
235 1436 1
236 1436 1
236 1437 1
237 1436 1
237 1438 1
237 1439 1
238 1440 1
238 1441 1
238 1442 1
238 1443 1
239 1444 1
239 1445 1
240 1446 1
240 994 1
241 1447 1
241 1448 1
242 1449 1
242 1450 1
242 994 1
242 1015 1
243 1451 1
243 1452 1
243 1270 1
244 1451 1
244 1453 1
245 1451 1
245 1270 1
245 1454 1
246 1455 1
246 1456 1
246 1457 1
247 1458 1
247 1459 1
248 1460 1
248 1264 1
249 1461 1
249 1462 1
249 1463 1
250 1461 1
250 1463 1
251 1461 1
251 1463 1
251 1464 1
252 1461 1
252 1464 1
253 1465 1
254 1466 1
254 1467 1
255 1468 1
255 1469 1
255 1470 1
256 1471 1
257 1472 1
257 1473 1
258 1206 1
258 1205 1
259 1206 1
259 1474 1
259 1205 1
260 1475 1
260 1476 1
260 1477 1
261 1475 1
261 1476 1
261 1477 1
261 1478 1
262 1479 1
262 1480 1
263 1481 1
263 1482 1
264 1483 1
264 1484 1
264 1485 1
264 1486 1
264 1487 1
265 1483 1
265 1488 1
266 1489 1
266 1490 1
267 1491 1
267 1492 1
267 1493 1
267 1494 1
268 1495 1
268 1496 1
269 1497 1
270 1498 1
270 1499 1
270 1500 1
271 1498 1
271 1501 1
271 1502 1
271 1503 1
272 1504 1
273 1505 1
273 1506 1
274 1507 1
275 1507 1
275 1508 1
276 1509 1
276 1510 1
276 1511 1
276 1082 1
277 1512 1
278 1513 1
278 1514 1
278 1515 1
279 1516 1
280 1517 1
280 1518 1
280 1519 1
281 1520 1
281 1521 1
282 1522 1
282 1523 1
282 994 1
282 1014 1
283 1522 1
283 1523 1
283 995 1
283 1094 1
283 1015 1
283 1093 1
283 1095 1
283 994 1
283 1014 1
284 1522 1
284 995 1
284 1014 1
284 994 1
284 1015 1
285 1524 1
285 1525 1
285 1526 1
285 1527 1
286 1528 1
286 1150 1
287 1529 1
287 1530 1
288 1531 1
288 1532 1
289 1533 1
289 1534 1
290 1535 1
290 1536 1
290 1242 1
291 1535 1
291 1242 1
292 1535 1
292 1242 1
292 1537 1
293 1538 1
293 1539 1
294 1540 1
295 1541 1
295 1542 1
295 1543 1
296 1544 1
296 1545 1
297 1546 1
297 1547 1
297 1548 1
297 1097 1
298 1549 1
299 1550 1
299 1551 1
299 1552 1
299 1553 1
300 1554 1
300 1555 1
301 1238 1
301 1364 1
301 1239 1
301 1556 1
302 1557 1
303 1557 1
303 1288 1
303 1377 1
304 1557 1
304 1007 1
305 1558 1
305 1559 1
306 1560 1
306 1561 1
307 1562 1
308 1563 1
308 1564 1
309 1565 1
310 1566 1
311 1236 1
311 1567 1
311 1568 1
311 1569 1
312 1570 1
312 1571 1
312 1006 1
313 1570 1
313 1006 1
313 1572 1
313 1573 1
314 1574 1
315 1575 1
315 1576 1
316 1577 1
316 1578 1
317 1579 1
317 1580 1
317 1581 1
318 1582 1
319 1582 1
319 1583 1
320 1584 1
320 1585 1
321 1586 1
321 1587 1
321 1588 1
321 1589 1
322 1590 1
322 1591 1
322 1592 1
323 1593 1
323 1594 1
324 1595 1
325 1596 1
325 1597 1
325 1598 1
326 1599 1
326 1123 1
326 1600 1
326 1277 1
326 1262 1
327 1599 1
327 1262 1
327 1424 1
328 1599 1
328 1601 1
329 1602 1
329 1039 1
330 1603 1
330 1604 1
331 1605 1
332 1606 1
333 1607 1
333 1039 1
334 1608 1
334 1609 1
335 1610 1
336 1061 1
336 1060 1
337 1611 1
337 1612 1
337 1150 1
337 1528 1
338 1613 1
338 1614 1
338 1615 1
338 1616 1
339 1613 1
339 1615 1
339 1616 1
340 1613 1
340 1617 1
340 1615 1
340 1616 1
341 1613 1
341 1618 1
341 995 1
341 1615 1
341 1616 1
342 1613 1
342 1618 1
342 1615 1
342 1616 1
343 1619 1
343 1620 1
343 1621 1
343 1622 1
344 1623 1
344 1624 1
344 1625 1
344 1626 1
344 1627 1
345 1628 1
345 1629 1
346 1630 1
346 1631 1
347 1630 1
347 1632 1
348 1462 1
348 1461 1
348 1463 1
349 1633 1
349 1634 1
350 1476 1
350 1477 1
351 1476 1
351 1477 1
351 1635 1
352 1636 1
352 1637 1
352 1404 1
353 1624 1
353 1638 1
353 1623 1
354 1639 1
354 1640 1
354 1641 1
355 1642 1
355 1643 1
355 1644 1
355 1645 1
356 1646 1
356 1018 1
357 1311 1
357 1647 1
358 1648 1
359 1649 1
360 1650 1
360 1651 1
360 1498 1
360 1500 1
361 1652 1
362 1653 1
362 1303 1
363 1654 1
363 1655 1
363 1656 1
363 1657 1
363 1658 1
363 1659 1
364 1406 1
364 1660 1
365 1661 1
365 1057 1
365 1662 1
365 1663 1
366 1664 1
367 1665 1
367 1666 1
367 1667 1
367 1668 1
368 1058 1
368 1030 1
369 1058 1
369 1055 1
369 1057 1
370 1058 1
370 1055 1
370 1057 1
370 1669 1
371 1058 1
371 1060 1
371 1057 1
371 1669 1
371 1055 1
372 1058 1
372 1057 1
372 1059 1
372 1056 1
372 1055 1
373 1058 1
373 1670 1
373 1671 1
373 1030 1
374 1672 1
374 1048 1
374 1049 1
375 1673 1
375 1674 1
375 1603 1
376 1675 1
#376 1675 1
377 1656 1
377 1676 1
377 1677 1
377 1678 1
377 1679 1
378 1222 1
379 1680 1
379 1681 1
380 1631 1
380 1682 1
381 1683 1
382 1684 1
382 1685 1
382 1686 1
382 1687 1
383 1688 1
384 1689 1
385 1690 1
385 1097 1
385 1548 1
386 1691 1
386 1692 1
387 1693 1
387 1694 1
387 1695 1
388 1696 1
389 1697 1
389 1032 1
389 1698 1
390 1404 1
391 1404 1
391 1699 1
391 1033 1
392 1404 1
392 1700 1
393 1701 1
394 1702 1
395 1703 1
395 1254 1
395 1704 1
395 1705 1
395 1255 1
396 1703 1
396 1706 1
397 1703 1
397 1707 1
398 1703 1
398 1255 1
398 1704 1
399 1708 1
400 1708 1
400 1709 1
401 1710 1
402 1711 1
402 1712 1
403 1713 1
403 1714 1
403 1680 1
404 1715 1
404 1716 1
405 1717 1
406 1717 1
406 1718 1
406 1719 1
407 1717 1
407 1720 1
408 1717 1
408 1721 1
409 1717 1
409 1721 1
409 995 1
410 1717 1
410 1722 1
411 1717 1
411 1722 1
411 1723 1
411 1724 1
412 1717 1
412 1725 1
412 1722 1
412 1726 1
413 1727 1
413 1728 1
413 1729 1
413 1730 1
414 1731 1
414 1732 1
414 1088 1
414 1733 1
414 1087 1
414 1734 1
415 1735 1
415 1736 1
415 1722 1
416 1735 1
416 1722 1
416 1736 1
417 1735 1
417 1722 1
417 1736 1
417 1737 1
418 1685 1
419 1738 1
419 1739 1
420 1740 1
421 970 1
422 970 1
422 968 1
423 1741 1
423 1742 1
423 1457 1
424 1743 1
425 1592 1
425 1744 1
425 1745 1
426 1746 1
426 1747 1
426 1748 1
427 1307 1
427 1177 1
427 1477 1
427 1749 1
428 1307 1
428 1306 1
428 1308 1
428 1177 1
429 1750 1
429 1751 1
429 1558 1
430 1752 1
431 1753 1
431 1623 1
431 1754 1
431 1755 1
432 1756 1
432 1757 1
432 1758 1
432 1759 1
432 1025 1
433 1760 1
433 1761 1
433 1762 1
433 1763 1
433 1764 1
433 1765 1
434 1766 1
434 1767 1
434 1768 1
434 1769 1
434 1023 1
435 1770 1
435 1771 1
436 1772 1
437 1773 1
437 1774 1
438 1775 1
438 1776 1
438 1777 1
439 1778 1
439 1779 1
440 1780 1
440 1781 1
441 1782 1
441 1783 1
441 1784 1
441 1785 1
442 1786 1
442 1787 1
442 1788 1
442 1789 1
442 1790 1
442 1791 1
442 1792 1
442 1793 1
442 1794 1
442 1795 1
443 1796 1
443 1797 1
443 1798 1
444 1799 1
445 995 1
445 1800 1
445 994 1
445 1015 1
446 995 1
446 1094 1
446 994 1
447 995 1
447 1801 1
447 991 1
447 1015 1
447 994 1
448 1802 1
448 1803 1
449 1802 1
449 1804 1
449 1803 1
450 1805 1
450 1806 1
450 1807 1
450 1808 1
451 1809 1
451 1810 1
452 1811 1
452 1812 1
452 1813 1
453 1814 1
453 1607 1
453 1039 1
454 1815 1
455 1681 1
455 1680 1
456 1816 1
456 1817 1
456 1818 1
457 1819 1
458 1067 1
458 1820 1
459 1821 1
459 1822 1
459 1823 1
460 1824 1
460 1825 1
460 1615 1
461 1615 1
461 1826 1
461 995 1
462 1707 1
462 1703 1
463 1827 1
463 1828 1
463 1332 1
464 1829 1
465 1830 1
466 1831 1
466 1832 1
466 1833 1
466 1834 1
466 1835 1
467 1836 1
468 1837 1
469 1838 1
469 1839 1
469 1840 1
469 1841 1
469 1842 1
470 1768 1
470 1766 1
470 1767 1
470 1023 1
471 1843 1
472 1844 1
472 1845 1
472 1846 1
473 1473 1
474 1847 1
474 1848 1
475 1849 1
475 1850 1
475 1851 1
476 1852 1
477 1157 1
477 1156 1
478 1722 1
479 1722 1
479 1725 1
479 1717 1
479 1726 1
479 1853 1
479 1736 1
480 1722 1
480 1723 1
480 1724 1
480 995 1
481 1854 1
481 1613 1
481 1615 1
481 1616 1
482 1854 1
482 1016 1
482 1615 1
482 1017 1
483 1855 1
483 1363 1
483 991 1
483 1288 1
484 1856 1
484 1857 1
484 1858 1
484 1859 1
484 1860 1
485 1861 1
485 1862 1
485 1863 1
486 1864 1
486 1865 1
486 1866 1
487 1867 1
487 1868 1
488 1268 1
488 1551 1
489 1268 1
490 1268 1
490 1869 1
490 1226 1
490 1227 1
490 1229 1
491 1488 1
491 1483 1
492 1870 1
492 1871 1
492 1872 1
493 1873 1
493 1874 1
493 1875 1
493 1876 1
493 1877 1
493 1878 1
494 1879 1
494 1132 1
495 1880 1
496 1881 1
496 1882 1
497 1376 1
497 1883 1
498 1884 1
498 1885 1
498 1886 1
499 1138 1
499 1887 1
500 1204 1
500 1888 1
501 1889 1
502 1890 1
502 1891 1
503 1892 1
503 1703 1
503 1893 1
504 1892 1
504 1894 1
505 1892 1
505 1893 1
506 1016 1
506 1017 1
507 1016 1
507 1017 1
507 1895 1
508 1016 1
508 1508 1
508 1017 1
509 1896 1
509 1897 1
509 1898 1
509 1078 1
509 1899 1
510 1900 1
511 1901 1
511 1439 1
512 1902 1
512 1903 1
512 1904 1
513 1018 1
513 1012 1
513 1019 1
514 1224 1
514 1226 1
514 1227 1
514 1905 1
514 1229 1
514 1906 1
515 1224 1
515 1226 1
515 1227 1
515 1229 1
516 962 1
516 961 1
517 962 1
517 1907 1
518 1908 1
519 1908 1
519 1909 1
520 1910 1
520 1911 1
521 1912 1
521 1913 1
521 1914 1
522 1912 1
522 1914 1
522 1913 1
522 1915 1
523 1912 1
523 1914 1
523 1913 1
523 1915 1
524 1916 1
524 1155 1
524 1917 1
525 1288 1
525 1377 1
526 1918 1
526 1919 1
526 1920 1
527 1551 1
527 1552 1
528 1617 1
529 1921 1
529 1922 1
529 1923 1
530 1924 1
530 1478 1
530 1112 1
530 1925 1
531 1926 1
531 1927 1
531 1928 1
531 1929 1
531 1930 1
531 1931 1
532 1932 1
533 1933 1
533 1934 1
534 1935 1
534 1936 1
534 1937 1
535 1719 1
535 1718 1
535 1030 1
536 1719 1
536 1718 1
536 1030 1
536 1033 1
536 1938 1
537 1939 1
537 1940 1
538 1941 1
538 1942 1
538 1943 1
539 1944 1
539 1945 1
539 1946 1
540 1944 1
540 1945 1
540 1947 1
541 1948 1
541 1949 1
542 1950 1
542 1934 1
543 1951 1
544 1952 1
544 1049 1
545 1953 1
545 1954 1
546 1955 1
546 1956 1
546 1957 1
546 1958 1
546 1959 1
547 1960 1
547 1961 1
548 1962 1
549 1797 1
550 1963 1
550 1964 1
550 1934 1
551 1963 1
551 1964 1
551 1934 1
551 1965 1
552 1966 1
553 1966 1
553 1039 1
554 1967 1
554 1968 1
555 1969 1
555 1012 1
555 994 1
556 1970 1
556 1971 1
557 1972 1
557 1973 1
558 1974 1
558 1975 1
559 1976 1
560 1977 1
560 1023 1
561 1978 1
561 1979 1
562 1196 1
562 1033 1
563 1377 1
563 1288 1
564 1980 1
565 1981 1
566 1088 1
566 1089 1
566 1982 1
566 1983 1
566 1984 1
567 1985 1
567 1986 1
567 1014 1
568 1987 1
568 1988 1
569 1583 1
570 1470 1
571 1989 1
571 1707 1
571 1990 1
571 1255 1
572 1511 1
572 1082 1
573 1511 1
573 1082 1
573 1991 1
574 1992 1
574 1993 1
575 1994 1
575 1995 1
576 1996 1
576 1997 1
577 1996 1
577 1998 1
577 1999 1
578 2000 1
578 2001 1
578 1269 1
579 1049 1
579 1048 1
580 1049 1
580 1952 1
581 1185 1
581 2002 1
581 1179 1
581 1177 1
582 2003 1
582 2004 1
582 2005 1
583 2006 1
583 1971 1
584 1414 1
584 1419 1
584 1420 1
585 2007 1
585 1443 1
586 2008 1
586 2009 1
586 2010 1
586 2011 1
586 973 1
587 2012 1
588 2013 1
588 2014 1
589 2015 1
590 2015 1
590 2016 1
591 2015 1
591 2017 1
591 2018 1
591 2019 1
592 2020 1
593 2021 1
593 2022 1
593 2023 1
593 2024 1
593 2025 1
593 2026 1
593 2027 1
593 2028 1
593 2029 1
593 2030 1
594 1891 1
595 1767 1
595 1766 1
595 1768 1
595 2031 1
595 2032 1
595 2033 1
595 2034 1
595 1023 1
596 1767 1
596 2032 1
596 1766 1
596 1768 1
596 1323 1
596 1023 1
597 1188 1
597 2035 1
598 2036 1
599 2037 1
600 2038 1
601 2039 1
601 2040 1
602 2041 1
603 2042 1
603 1242 1
604 1134 1
605 1332 1
605 1039 1
606 2043 1
606 2044 1
606 1030 1
607 2045 1
607 961 1
607 962 1
608 2046 1
609 1477 1
609 2047 1
609 2048 1
610 1477 1
610 2049 1
610 2048 1
611 1477 1
611 2049 1
611 1112 1
612 1477 1
612 2048 1
613 1477 1
613 1111 1
613 1478 1
613 1112 1
614 1477 1
614 1111 1
614 1112 1
615 1477 1
615 1478 1
616 1477 1
616 2050 1
616 2048 1
617 2051 1
618 1670 1
618 1032 1
618 1033 1
618 1030 1
619 1434 1
620 1434 1
620 1433 1
620 1945 1
620 2052 1
621 1434 1
621 1945 1
622 1434 1
622 2053 1
622 1945 1
623 1434 1
623 1183 1
623 1180 1
624 1426 1
625 1426 1
625 1425 1
626 2054 1
626 2055 1
626 2056 1
626 2057 1
627 2058 1
627 2059 1
627 2060 1
628 2061 1
629 2062 1
629 2063 1
629 2064 1
630 2065 1
631 2066 1
631 2067 1
631 2068 1
631 2069 1
631 2070 1
631 2071 1
631 2072 1
631 2073 1
631 2074 1
632 2075 1
632 2076 1
633 2077 1
633 2078 1
633 2079 1
633 2080 1
633 2081 1
634 1039 1
635 1039 1
635 2082 1
635 2083 1
636 1039 1
636 1720 1
636 1332 1
637 1039 1
637 1607 1
638 1039 1
638 1717 1
638 2084 1
639 1039 1
639 1332 1
639 1270 1
640 1039 1
640 1082 1
641 1039 1
641 1242 1
642 1039 1
642 1007 1
643 1039 1
643 1269 1
643 1270 1
644 1039 1
644 1270 1
645 1039 1
645 1270 1
645 1269 1
646 2085 1
646 1208 1
646 2086 1
646 1376 1
647 2087 1
648 2053 1
648 1434 1
648 1945 1
648 1946 1
649 2088 1
649 2089 1
650 1937 1
650 1049 1
651 1937 1
651 2090 1
652 1618 1
652 2091 1
652 1735 1
652 1615 1
653 2092 1
653 2093 1
654 2094 1
654 2095 1
655 2096 1
655 2097 1
655 1917 1
655 1155 1
655 2098 1
656 2096 1
656 2099 1
656 1155 1
656 1917 1
657 2100 1
657 2101 1
658 2102 1
658 2103 1
659 2104 1
660 2105 1
661 1182 1
661 1304 1
661 2106 1
661 1180 1
662 2107 1
662 2108 1
662 2109 1
662 2110 1
662 2111 1
663 2112 1
664 2113 1
664 2114 1
664 2115 1
664 2116 1
664 2117 1
664 2118 1
664 2119 1
664 2120 1
664 2121 1
665 2122 1
666 1075 1
666 2123 1
666 2124 1
667 2125 1
667 2126 1
668 1220 1
668 1219 1
668 2127 1
668 2128 1
669 2129 1
669 2130 1
670 2131 1
670 1781 1
671 2132 1
672 2133 1
672 1039 1
673 2134 1
674 2135 1
675 2136 1
675 2137 1
675 1892 1
676 1111 1
677 1111 1
677 2138 1
677 1057 1
678 1111 1
678 2139 1
678 1242 1
679 1111 1
679 1478 1
679 1112 1
680 1111 1
680 1112 1
681 1097 1
682 1097 1
682 1548 1
683 2140 1
684 2141 1
684 1550 1
684 1551 1
684 2142 1
684 1552 1
685 2143 1
685 1263 1
686 1304 1
686 1180 1
687 1304 1
687 2106 1
687 1180 1
688 2144 1
689 2145 1
689 2146 1
689 2147 1
690 2148 1
691 2149 1
692 2150 1
692 1288 1
692 1289 1
693 2151 1
693 1015 1
693 995 1
693 1801 1
693 994 1
693 2152 1
694 2153 1
695 2154 1
695 2155 1
696 1378 1
696 1363 1
696 1288 1
697 2156 1
697 2157 1
697 1039 1
697 2158 1
698 2159 1
698 2160 1
698 2161 1
699 1874 1
699 1877 1
699 2162 1
699 2163 1
699 2164 1
699 2165 1
699 2166 1
699 1961 1
700 1874 1
700 2167 1
700 1877 1
700 2162 1
700 1875 1
700 2168 1
700 2169 1
700 1876 1
701 1874 1
701 2162 1
701 1877 1
702 2170 1
702 2171 1
702 2172 1
702 2173 1
703 2174 1
704 2174 1
705 1698 1
706 2175 1
706 1291 1
706 2176 1
706 2177 1
706 2178 1
707 2179 1
707 2180 1
708 2181 1
709 2182 1
709 1461 1
709 1111 1
710 2183 1
710 2184 1
710 2185 1
711 2186 1
712 2186 1
712 2187 1
713 2186 1
713 2188 1
714 1093 1
714 994 1
715 1093 1
715 2189 1
715 2190 1
715 1015 1
715 994 1
716 1017 1
717 1302 1
717 1300 1
718 2191 1
718 1205 1
719 2192 1
719 2193 1
720 2194 1
720 2195 1
720 1376 1
721 2196 1
721 1442 1
721 2197 1
722 2091 1
722 995 1
722 1615 1
723 1089 1
723 1984 1
723 1982 1
724 1751 1
724 1558 1
724 1750 1
725 2198 1
725 2199 1
726 1508 1
726 2200 1
727 1984 1
727 1089 1
728 2201 1
728 2202 1
729 2203 1
729 2204 1
730 2205 1
730 2206 1
730 2207 1
730 2208 1
730 1443 1
731 2209 1
731 2210 1
732 2211 1
732 1442 1
732 2212 1
733 2213 1
733 2214 1
733 2215 1
734 2213 1
734 2215 1
735 2106 1
735 1304 1
735 1180 1
736 2216 1
736 1725 1
736 1726 1
736 1082 1
737 2162 1
737 2217 1
737 2218 1
737 1877 1
738 2219 1
738 2220 1
739 2221 1
739 2222 1
739 2223 1
740 2224 1
740 1336 1
740 1337 1
740 1338 1
741 2225 1
741 2226 1
741 2227 1
741 2228 1
742 1833 1
742 2229 1
743 2230 1
744 2231 1
744 1281 1
744 1282 1
745 2232 1
745 2233 1
745 1908 1
746 2234 1
746 2235 1
746 1804 1
746 2236 1
746 2237 1
747 2238 1
748 1031 1
748 1030 1
748 1032 1
749 1705 1
749 2239 1
749 1255 1
750 1705 1
750 1254 1
750 1703 1
750 1704 1
750 1255 1
751 1705 1
751 2240 1
751 2241 1
751 2242 1
752 1705 1
752 1255 1
753 2243 1
753 2106 1
753 1180 1
753 2244 1
754 2245 1
755 2246 1
756 1658 1
756 1654 1
757 2247 1
757 2248 1
757 2249 1
757 2250 1
757 2251 1
758 2252 1
759 2253 1
759 2254 1
759 2255 1
760 2256 1
760 1336 1
760 1337 1
760 994 1
760 1338 1
761 2257 1
762 2258 1
763 2259 1
763 2260 1
764 2261 1
765 2262 1
766 2263 1
767 1979 1
767 2264 1
767 2265 1
768 1979 1
768 2266 1
769 1979 1
769 2267 1
769 2268 1
769 2269 1
769 2270 1
769 1978 1
770 2271 1
770 2272 1
771 2273 1
771 2274 1
771 2275 1
771 2276 1
771 2277 1
772 2032 1
772 1767 1
772 1977 1
772 1023 1
773 2278 1
774 2279 1
774 1861 1
775 2280 1
776 2281 1
776 2282 1
777 2283 1
777 1485 1
778 2284 1
778 2285 1
778 2286 1
779 2160 1
780 2287 1
780 2288 1
781 2289 1
781 2290 1
782 2291 1
783 2292 1
783 2293 1
783 2294 1
784 2295 1
785 2296 1
785 2297 1
785 2298 1
785 2299 1
786 2300 1
786 1843 1
787 2301 1
788 2302 1
788 1478 1
789 1242 1
789 2042 1
790 1242 1
790 1111 1
791 1242 1
791 1111 1
791 2139 1
791 2303 1
792 1242 1
792 2304 1
792 2305 1
793 1242 1
793 1244 1
794 2306 1
794 2186 1
795 1682 1
795 2307 1
796 2308 1
796 1338 1
796 2309 1
797 2310 1
797 2311 1
797 2312 1
797 2313 1
797 1323 1
798 2314 1
799 1637 1
800 2315 1
800 2316 1
801 2317 1
802 2317 1
802 1484 1
802 1707 1
802 1703 1
803 2317 1
803 1892 1
804 2317 1
804 2318 1
804 2319 1
805 2317 1
805 2320 1
806 2321 1
807 1033 1
808 1007 1
809 1007 1
809 2322 1
810 1007 1
810 2322 1
810 1389 1
810 2323 1
811 1007 1
811 2324 1
812 2325 1
812 2326 1
812 2327 1
812 2247 1
812 2328 1
813 1893 1
813 1703 1
813 1254 1
813 1704 1
813 1255 1
813 1892 1
814 1893 1
814 2329 1
814 2330 1
814 1254 1
814 1255 1
814 1892 1
815 2331 1
815 2332 1
816 2333 1
816 2334 1
817 2335 1
817 2336 1
817 2337 1
818 2338 1
818 2255 1
818 2339 1
819 2340 1
820 1564 1
821 1269 1
822 1269 1
822 2001 1
823 2341 1
824 2342 1
824 1483 1
824 1037 1
825 2343 1
826 2344 1
827 2345 1
827 2346 1
827 1155 1
828 2347 1
828 2348 1
829 2349 1
830 1290 1
831 1290 1
831 1508 1
832 1290 1
832 2350 1
833 1290 1
833 2350 1
833 1508 1
834 2351 1
834 2352 1
834 2353 1
835 2354 1
836 2355 1
836 2106 1
836 2356 1
836 1180 1
836 1304 1
836 2357 1
836 1658 1
836 2358 1
837 2359 1
837 1275 1
838 2360 1
838 2361 1
838 2362 1
838 2363 1
838 2364 1
839 2365 1
839 2366 1
839 1288 1
839 2367 1
839 1377 1
839 2368 1
839 2369 1
840 2370 1
840 2371 1
840 1457 1
841 2318 1
841 2319 1
842 2318 1
842 2372 1
842 2068 1
842 2319 1
843 2318 1
843 2317 1
843 2319 1
844 2373 1
844 2021 1
845 1147 1
845 2123 1
846 1147 1
846 2374 1
846 2123 1
846 2375 1
846 2376 1
847 2377 1
847 1264 1
847 1987 1
847 2378 1
848 2379 1
848 1891 1
849 1725 1
849 2216 1
849 1082 1
850 2297 1
850 2380 1
851 2381 1
851 2382 1
851 2383 1
851 2384 1
852 2385 1
852 2386 1
852 970 1
853 2387 1
853 2388 1
853 2389 1
854 2390 1
854 1606 1
854 2391 1
854 2392 1
854 2393 1
854 2394 1
854 2395 1
854 2396 1
854 2397 1
854 2398 1
854 2399 1
854 2400 1
854 2401 1
854 2402 1
854 2403 1
854 2404 1
854 2405 1
854 2406 1
854 2407 1
854 2408 1
855 2390 1
855 2409 1
855 2391 1
855 2392 1
856 2410 1
856 2411 1
857 1244 1
857 2412 1
857 1242 1
858 1244 1
858 1535 1
858 1242 1
859 1244 1
859 1242 1
860 2413 1
860 1177 1
861 2414 1
861 2321 1
862 2415 1
862 1682 1
863 2416 1
863 1443 1
864 2417 1
864 2418 1
864 2419 1
864 2420 1
865 1478 1
866 1478 1
866 1186 1
866 1477 1
866 1111 1
866 1112 1
867 1478 1
867 2421 1
867 1088 1
867 1112 1
868 1478 1
868 1477 1
869 1478 1
869 1111 1
869 1112 1
870 1478 1
870 1113 1
871 2422 1
871 1016 1
871 1017 1
872 2423 1
873 2424 1
874 1112 1
875 2425 1
875 2426 1
875 1821 1
875 2427 1
875 1255 1
875 2428 1
876 1014 1
876 2429 1
876 2276 1
876 2430 1
876 2431 1
877 2432 1
877 2433 1
877 2434 1
878 2435 1
878 2436 1
878 2437 1
879 2438 1
879 2439 1
879 1168 1
880 2440 1
881 2440 1
881 2441 1
882 2442 1
882 2443 1
882 1057 1
883 2444 1
883 2445 1
883 2446 1
884 2447 1
884 2448 1
885 1150 1
886 1150 1
886 1528 1
887 2449 1
887 2450 1
887 2103 1
888 2451 1
889 2452 1
889 2453 1
890 1275 1
891 2454 1
891 2455 1
892 2456 1
892 2457 1
893 1261 1
893 1934 1
894 1261 1
894 2458 1
895 1261 1
895 1257 1
896 2235 1
896 2234 1
896 1804 1
897 1043 1
898 1043 1
898 1524 1
899 1043 1
899 2459 1
900 1270 1
901 1270 1
901 1451 1
901 1039 1
902 1270 1
902 1269 1
903 2460 1
904 2461 1
904 2462 1
904 1200 1
904 2463 1
904 2464 1
905 1410 1
906 2465 1
907 2465 1
907 2466 1
907 2467 1
907 2468 1
907 2469 1
907 2470 1
908 2471 1
909 2472 1
909 2473 1
909 2474 1
910 1961 1
910 1216 1
910 1215 1
911 1961 1
911 2465 1
911 2475 1
912 2081 1
912 2476 1
912 2477 1
912 2478 1
913 2479 1
913 2480 1
913 1204 1
913 1888 1
913 2481 1
914 2386 1
914 970 1
915 1469 1
915 1151 1
915 1468 1
915 994 1
916 1469 1
916 1151 1
916 1468 1
916 994 1
916 1470 1
917 2482 1
918 2482 1
919 2483 1
919 2484 1
920 2485 1
921 2486 1
921 2487 1
922 2488 1
923 2489 1
924 2490 1
925 2490 1
925 1015 1
925 994 1
926 2491 1
927 2491 1
927 2492 1
928 2493 1
928 970 1
929 1493 1
929 2494 1
929 2495 1
929 2496 1
929 1492 1
929 1491 1
930 2497 1
930 1804 1
931 2498 1
931 2499 1
931 2500 1
932 2501 1
932 2502 1
932 2454 1
932 2503 1
932 2452 1
933 2504 1
933 2505 1
934 2506 1
934 2507 1
934 2508 1
934 2509 1
935 2510 1
935 1269 1
936 2511 1
936 995 1
936 994 1
937 2511 1
937 995 1
937 994 1
937 2512 1
938 2511 1
938 1015 1
938 994 1
939 2513 1
940 1255 1
941 1255 1
941 1703 1
941 1705 1
942 1255 1
942 1705 1
942 1704 1
942 1703 1
942 1254 1
942 2239 1
943 1255 1
943 2514 1
943 2515 1
943 2516 1
944 2517 1
944 1637 1
944 2518 1
944 2519 1
945 2520 1
946 2521 1
946 2522 1
946 2106 1
946 1180 1
947 1907 1
948 2523 1
948 2524 1
948 2525 1
948 2526 1
948 2527 1
948 2528 1
948 1024 1
948 1023 1
949 2529 1
949 2530 1
950 1298 1
950 1592 1
950 2531 1
950 2532 1
950 2533 1
950 2534 1
951 2535 1
951 1592 1
951 1744 1
952 2536 1
952 2537 1
952 2538 1
952 2539 1
953 2540 1
953 1592 1
953 1591 1
954 2541 1
954 2542 1
955 1183 1
955 1180 1
956 2543 1
957 2544 1
957 2545 1
958 2546 1
958 2547 1
959 2548 1
959 2546 1
960 2549 1
960 1483 1
960 1037 1;
